(declare-fun $prop4$2 () Bool)
(declare-fun $state$2 () Int)
(declare-fun $prop3$2 () Bool)
(declare-fun $prop2$2 () Bool)
(declare-fun $prop_all$2 () Bool)
(declare-fun $prop1$2 () Bool)
(declare-fun $bias_max$2 () Bool)
(declare-fun $bias$2 () Int)

(assert (and (= $bias$2 0)
     (= $bias_max$2 false)
     (= $prop1$2 true)
     (= $state$2 0)
     (= $prop2$2 true)
     (= $prop3$2 true)
     (= $prop4$2 true)
     (= $prop_all$2 true)))
(check-sat)
